(set-option :produce-models true); benchmark generated from python API
(set-info :status unknown)
(declare-fun l_1_0_9 () Real)
(declare-fun l_1_0_8 () Real)
(declare-fun l_1_0_7 () Real)
(declare-fun l_1_0_6 () Real)
(declare-fun l_1_0_5 () Real)
(declare-fun l_1_0_4 () Real)
(declare-fun l_1_0_3 () Real)
(declare-fun l_1_0_2 () Real)
(declare-fun l_1_0_1 () Real)
(declare-fun _a_0_ () Real)
(declare-fun l_1_0_15 () Real)
(declare-fun _a_1_ () Real)
(declare-fun l_1_0_18 () Real)
(declare-fun l_1_0_17 () Real)
(declare-fun l_1_0_16 () Real)
(declare-fun _a_2_ () Real)
(declare-fun l_1_0_14 () Real)
(declare-fun l_1_0_13 () Real)
(declare-fun l_1_0_12 () Real)
(declare-fun _a_3_ () Real)
(declare-fun l_1_0_11 () Real)
(declare-fun l_1_0_10 () Real)
(declare-fun l_1_1_9 () Real)
(declare-fun l_1_1_7 () Real)
(declare-fun l_1_1_5 () Real)
(declare-fun l_1_1_4 () Real)
(declare-fun l_1_1_3 () Real)
(declare-fun l_1_1_15 () Real)
(declare-fun l_1_1_14 () Real)
(declare-fun l_1_1_11 () Real)
(declare-fun l_1_1_10 () Real)
(declare-fun l_1_1_1 () Real)
(declare-fun l_1_1_8 () Real)
(declare-fun l_1_1_6 () Real)
(declare-fun l_1_1_2 () Real)
(declare-fun l_1_1_13 () Real)
(declare-fun l_1_1_12 () Real)
(declare-fun l_1_1_24 () Real)
(declare-fun l_1_1_23 () Real)
(declare-fun l_1_1_22 () Real)
(declare-fun l_1_1_21 () Real)
(declare-fun l_1_1_18 () Real)
(declare-fun l_1_1_20 () Real)
(declare-fun l_1_1_19 () Real)
(declare-fun l_1_1_17 () Real)
(declare-fun l_1_1_16 () Real)
(declare-fun l_1_2_9 () Real)
(declare-fun l_1_2_6 () Real)
(declare-fun l_1_2_3 () Real)
(declare-fun l_1_2_2 () Real)
(declare-fun l_1_2_15 () Real)
(declare-fun l_1_2_14 () Real)
(declare-fun l_1_2_13 () Real)
(declare-fun l_1_2_11 () Real)
(declare-fun l_1_2_10 () Real)
(declare-fun l_1_2_1 () Real)
(declare-fun l_1_2_8 () Real)
(declare-fun l_1_2_7 () Real)
(declare-fun l_1_2_5 () Real)
(declare-fun l_1_2_4 () Real)
(declare-fun l_1_2_12 () Real)
(declare-fun l_1_2_18 () Real)
(declare-fun l_1_2_25 () Real)
(declare-fun l_1_2_16 () Real)
(declare-fun l_1_2_20 () Real)
(declare-fun l_1_2_19 () Real)
(declare-fun l_1_2_27 () Real)
(declare-fun l_1_2_26 () Real)
(declare-fun l_1_2_17 () Real)
(declare-fun l_1_2_29 () Real)
(declare-fun l_1_2_28 () Real)
(declare-fun l_1_2_24 () Real)
(declare-fun l_1_2_23 () Real)
(declare-fun l_1_2_22 () Real)
(declare-fun l_1_2_21 () Real)
(assert
 (let ((?x79 (* l_1_0_9 l_1_0_9)))
 (let ((?x3487 (* (/ 71.0 4.0) l_1_0_7)))
 (let ((?x89 (* (/ 71.0 4.0) l_1_0_5)))
 (let ((?x91 (* (/ 71.0 4.0) l_1_0_4)))
 (let ((?x3488 (+ (+ (- (- (- _a_0_ (* (/ 5041.0 16.0) l_1_0_1)) l_1_0_2) l_1_0_3) ?x91) ?x89)))
 (= (- (- (+ (- ?x3488 l_1_0_6) ?x3487) l_1_0_8) ?x79) 0.0)))))))
(assert
 (= (- _a_1_ (* (* 2.0 l_1_0_15) l_1_0_9)) 0.0))
(assert
 (let ((?x3427 (* l_1_0_18 l_1_0_18)))
 (let ((?x3092 (* l_1_0_17 l_1_0_17)))
 (let ((?x3091 (* l_1_0_16 l_1_0_16)))
 (let ((?x87 (- (- (- _a_2_ (* (/ 71.0 2.0) l_1_0_1)) (* l_1_0_15 l_1_0_15)) ?x3091)))
 (= (+ (+ (+ (- (- ?x87 ?x3092) ?x3427) l_1_0_4) l_1_0_5) l_1_0_7) 0.0))))))
(assert
 (let ((?x2959 (* l_1_0_14 l_1_0_14)))
 (let ((?x2956 (* l_1_0_13 l_1_0_13)))
 (let ((?x2988 (- (- (- _a_3_ (* (/ 143.0 2.0) l_1_0_1)) (* l_1_0_12 l_1_0_12)) ?x2956)))
 (= (+ (+ (+ (- ?x2988 ?x2959) l_1_0_4) l_1_0_5) l_1_0_7) 0.0)))))
(assert
 (let ((?x3358 (* l_1_0_11 l_1_0_11)))
 (let ((?x3334 (+ (- (- (* (- (/ 143.0 2.0)) l_1_0_1) (* l_1_0_10 l_1_0_10)) ?x3358) l_1_0_4)))
 (= (+ (+ ?x3334 l_1_0_5) l_1_0_7) 0.0))))
(assert
 (let ((?x1970 (* 6.0 l_1_0_7)))
 (let ((?x2490 (* 6.0 l_1_0_5)))
 (let ((?x65 (* 6.0 l_1_0_4)))
 (let ((?x70 (- (- (- (* 213.0 l_1_0_1) (* (* 2.0 l_1_0_10) l_1_0_9)) ?x65) ?x2490)))
 (= (- ?x70 ?x1970) 0.0))))))
(assert
 (let ((?x1970 (* 6.0 l_1_0_7)))
 (let ((?x2490 (* 6.0 l_1_0_5)))
 (let ((?x65 (* 6.0 l_1_0_4)))
 (let ((?x3296 (- (- (- (* 213.0 l_1_0_1) (* (* 2.0 l_1_0_12) l_1_0_9)) ?x65) ?x2490)))
 (= (- ?x3296 ?x1970) 0.0))))))
(assert
 (= (- l_1_0_1) 0.0))
(assert
 (= (* 12.0 l_1_0_1) 0.0))
(assert
 (= (* (- 2.0) l_1_0_1) 0.0))
(assert
 (= (* (- 2.0) l_1_0_1) 0.0))
(assert
 (= (* 12.0 l_1_0_1) 0.0))
(assert
 (= (* 12.0 l_1_0_1) 0.0))
(assert
 (= (* 12.0 l_1_0_1) 0.0))
(assert
 (let ((?x3248 (- (- (* (- 72.0) l_1_0_1) (* (* 2.0 l_1_0_10) l_1_0_12)) (* (* 2.0 l_1_0_11) l_1_0_13))))
 (= ?x3248 0.0)))
(assert
 (= (- l_1_0_1) 0.0))
(assert
 (= (* (- 2.0) l_1_0_1) 0.0))
(assert
 (= (* 12.0 l_1_0_1) 0.0))
(assert
 (= (- l_1_0_1) 0.0))
(assert
 (= (* 12.0 l_1_0_1) 0.0))
(assert
 (let ((?x3226 (- (* (* (- 2.0) l_1_0_10) l_1_0_15) (* (* 2.0 l_1_0_11) l_1_0_16))))
 (= ?x3226 0.0)))
(assert
 (let ((?x151 (- (* (* (- 2.0) l_1_0_12) l_1_0_15) (* (* 2.0 l_1_0_13) l_1_0_16))))
 (= (- ?x151 (* (* 2.0 l_1_0_14) l_1_0_17)) 0.0)))
(assert
 (>= l_1_0_1 0.0))
(assert
 (>= l_1_0_2 0.0))
(assert
 (>= l_1_0_3 0.0))
(assert
 (>= l_1_0_4 0.0))
(assert
 (>= l_1_0_5 0.0))
(assert
 (>= l_1_0_6 0.0))
(assert
 (>= l_1_0_7 0.0))
(assert
 (>= l_1_0_8 0.0))
(assert
 (>= l_1_0_9 0.0))
(assert
 (>= l_1_0_11 0.0))
(assert
 (>= l_1_0_14 0.0))
(assert
 (>= l_1_0_18 0.0))
(assert
 (let ((?x3044 (* 16.0 l_1_1_5)))
 (let ((?x3067 (* 16.0 l_1_1_3)))
 (let ((?x3065 (* l_1_1_15 l_1_1_15)))
 (let ((?x3093 (* 16.0 l_1_1_11)))
 (let ((?x3087 (* 256.0 l_1_1_10)))
 (let ((?x3115 (* _a_0_ l_1_1_8)))
 (let ((?x3114 (* _a_0_ l_1_1_6)))
 (let ((?x3113 (* _a_0_ l_1_1_2)))
 (let ((?x2138 (- (* (* (- 16.0) _a_0_) l_1_1_12) (* (* 16.0 _a_0_) l_1_1_13))))
 (let ((?x3064 (- (- (- (- (- (- (- ?x2138 ?x3113) ?x3114) ?x3115) l_1_1_1) ?x3087) ?x3093) l_1_1_14)))
 (let ((?x3021 (- (- (- (- (- (- ?x3064 ?x3065) ?x3067) l_1_1_4) ?x3044) l_1_1_7) (* (* l_1_1_9 _a_0_) _a_0_))))
 (= (- ?x3021 1.0) 0.0)))))))))))))
(assert
 (let ((?x2673 (* l_1_1_24 l_1_1_24)))
 (let ((?x2671 (* l_1_1_23 l_1_1_23)))
 (let ((?x2791 (* l_1_1_22 l_1_1_22)))
 (let ((?x2667 (* l_1_1_21 l_1_1_21)))
 (let ((?x2821 (* 32.0 l_1_1_10)))
 (let ((?x2820 (* _a_2_ l_1_1_8)))
 (let ((?x2723 (- (- (- (* (- _a_2_) l_1_1_2) (* _a_2_ l_1_1_6)) ?x2820) ?x2821)))
 (let ((?x2790 (- (- (- ?x2723 l_1_1_11) (* l_1_1_12 (+ _a_0_ (* 16.0 _a_2_)))) (* l_1_1_13 (+ _a_0_ (* 16.0 _a_2_))))))
 (let ((?x2794 (- (- (- (- (- (- ?x2790 ?x2667) ?x2791) ?x2671) ?x2673) l_1_1_3) l_1_1_5)))
 (let ((?x2770 (- ?x2794 (* l_1_1_9 (+ (* (* 2.0 _a_0_) _a_2_) (* _a_1_ _a_1_))))))
 (= (- ?x2770 (/ 1.0 2.0)) 0.0))))))))))))
(assert
 (let ((?x2378 (* 6.0 l_1_1_5)))
 (let ((?x2068 (* 6.0 l_1_1_3)))
 (let ((?x2372 (* 6.0 l_1_1_11)))
 (let ((?x2440 (* 192.0 l_1_1_10)))
 (let ((?x2000 (+ (* (* 6.0 _a_0_) l_1_1_12) (* (* 6.0 _a_0_) l_1_1_13))))
 (let ((?x2374 (+ (+ ?x2000 ?x2440) ?x2372)))
 (let ((?x2071 (+ (+ (+ (- ?x2374 (* (* 2.0 l_1_1_15) l_1_1_18)) ?x2068) ?x2378) 1.0)))
 (= ?x2071 0.0)))))))))
(assert
 (let ((?x2312 (* _a_1_ l_1_1_8)))
 (let ((?x2309 (* _a_1_ l_1_1_6)))
 (let ((?x2306 (* _a_1_ l_1_1_2)))
 (let ((?x2303 (- (* (* (* (- 2.0) _a_0_) _a_1_) l_1_1_9) (* (* 16.0 _a_1_) l_1_1_12))))
 (let ((?x2314 (- (- (- (- ?x2303 (* (* 16.0 _a_1_) l_1_1_13)) ?x2306) ?x2309) ?x2312)))
 (= (- ?x2314 (* (* 2.0 l_1_1_15) l_1_1_21)) 0.0)))))))
(assert
 (let ((?x2133 (* l_1_1_20 l_1_1_20)))
 (let ((?x2130 (* l_1_1_19 l_1_1_19)))
 (let ((?x2128 (* l_1_1_18 l_1_1_18)))
 (let ((?x2213 (* 68.0 l_1_1_10)))
 (let ((?x2210 (* _a_3_ l_1_1_8)))
 (let ((?x2208 (* _a_3_ l_1_1_6)))
 (let ((?x2206 (* _a_3_ l_1_1_2)))
 (let ((?x2211 (- (- (- (* (* (* (- 2.0) _a_0_) _a_3_) l_1_1_9) ?x2206) ?x2208) ?x2210)))
 (let ((?x2125 (- (- (- ?x2211 ?x2213) l_1_1_11) (* l_1_1_12 (+ _a_0_ (* 16.0 _a_3_))))))
 (let ((?x2131 (- (- (- ?x2125 (* l_1_1_13 (+ _a_0_ (* 16.0 _a_3_)))) ?x2128) ?x2130)))
 (= (- (- (- ?x2131 ?x2133) l_1_1_3) l_1_1_5) 0.0))))))))))))
(assert
 (let ((?x1943 (* l_1_1_17 l_1_1_17)))
 (let ((?x1941 (* l_1_1_16 l_1_1_16)))
 (let ((?x2213 (* 68.0 l_1_1_10)))
 (let ((?x1940 (- (- (- (* (- _a_0_) l_1_1_12) (* _a_0_ l_1_1_13)) ?x2213) l_1_1_11)))
 (= (- (- (- (- ?x1940 ?x1941) ?x1943) l_1_1_3) l_1_1_5) 0.0))))))
(assert
 (let ((?x2378 (* 6.0 l_1_1_5)))
 (let ((?x2068 (* 6.0 l_1_1_3)))
 (let ((?x2372 (* 6.0 l_1_1_11)))
 (let ((?x2440 (* 192.0 l_1_1_10)))
 (let ((?x2000 (+ (* (* 6.0 _a_0_) l_1_1_12) (* (* 6.0 _a_0_) l_1_1_13))))
 (let ((?x2374 (+ (+ ?x2000 ?x2440) ?x2372)))
 (= (+ (+ (- ?x2374 (* (* 2.0 l_1_1_15) l_1_1_16)) ?x2068) ?x2378) 0.0))))))))
(assert
 (let ((?x2256 (* _a_1_ l_1_1_13)))
 (let ((?x2318 (* _a_1_ l_1_1_12)))
 (= (- (- (* (* (* (- 2.0) _a_1_) _a_2_) l_1_1_9) ?x2318) ?x2256) 0.0))))
(assert
 (let ((?x2256 (* _a_1_ l_1_1_13)))
 (let ((?x2318 (* _a_1_ l_1_1_12)))
 (= (- (- (* (* (* (- 2.0) _a_1_) _a_3_) l_1_1_9) ?x2318) ?x2256) 0.0))))
(assert
 (let ((?x43 (- (- (- (* (- _a_2_) l_1_1_12) (* _a_2_ l_1_1_13)) l_1_1_10) (* (* l_1_1_9 _a_2_) _a_2_))))
 (= ?x43 0.0)))
(assert
 (let ((?x1452 (* 2.0 l_1_1_10)))
 (let ((?x1769 (- (- (* (* (* (- 2.0) _a_2_) _a_3_) l_1_1_9) ?x1452) (* l_1_1_12 (+ _a_2_ _a_3_)))))
 (= (- ?x1769 (* l_1_1_13 (+ _a_2_ _a_3_))) 0.0))))
(assert
 (let ((?x1154 (- (- (- (* (- _a_3_) l_1_1_12) (* _a_3_ l_1_1_13)) l_1_1_10) (* (* l_1_1_9 _a_3_) _a_3_))))
 (= ?x1154 0.0)))
(assert
 (= (- l_1_1_10) 0.0))
(assert
 (let ((?x1118 (* 12.0 l_1_1_10)))
 (= ?x1118 0.0)))
(assert
 (let ((?x1452 (* 2.0 l_1_1_10)))
 (let ((?x1977 (* _a_2_ l_1_1_13)))
 (let ((?x42 (- (* (- _a_2_) l_1_1_12) ?x1977)))
 (= (- ?x42 ?x1452) 0.0)))))
(assert
 (let ((?x1452 (* 2.0 l_1_1_10)))
 (let ((?x1980 (* _a_3_ l_1_1_13)))
 (let ((?x1151 (- (* (- _a_3_) l_1_1_12) ?x1980)))
 (= (- ?x1151 ?x1452) 0.0)))))
(assert
 (let ((?x1118 (* 12.0 l_1_1_10)))
 (= ?x1118 0.0)))
(assert
 (let ((?x1118 (* 12.0 l_1_1_10)))
 (let ((?x1694 (+ (* (* 6.0 _a_2_) l_1_1_12) (* (* 6.0 _a_2_) l_1_1_13))))
 (= (+ ?x1694 ?x1118) 0.0))))
(assert
 (let ((?x1118 (* 12.0 l_1_1_10)))
 (let ((?x910 (+ (* (* 6.0 _a_3_) l_1_1_12) (* (* 6.0 _a_3_) l_1_1_13))))
 (= (+ ?x910 ?x1118) 0.0))))
(assert
 (let ((?x1358 (- (- (* (- 72.0) l_1_1_10) (* (* 2.0 l_1_1_16) l_1_1_18)) (* (* 2.0 l_1_1_17) l_1_1_19))))
 (= ?x1358 0.0)))
(assert
 (let ((?x1118 (* 12.0 l_1_1_10)))
 (let ((?x1694 (+ (* (* 6.0 _a_2_) l_1_1_12) (* (* 6.0 _a_2_) l_1_1_13))))
 (= (+ ?x1694 ?x1118) 0.0))))
(assert
 (let ((?x1118 (* 12.0 l_1_1_10)))
 (let ((?x910 (+ (* (* 6.0 _a_3_) l_1_1_12) (* (* 6.0 _a_3_) l_1_1_13))))
 (= (+ ?x910 ?x1118) 0.0))))
(assert
 (= (- (* (- _a_1_) l_1_1_12) (* _a_1_ l_1_1_13)) 0.0))
(assert
 (let ((?x1587 (+ (* (* 6.0 _a_1_) l_1_1_12) (* (* 6.0 _a_1_) l_1_1_13))))
 (let ((?x1589 (- (- ?x1587 (* (* 2.0 l_1_1_16) l_1_1_21)) (* (* 2.0 l_1_1_17) l_1_1_22))))
 (= ?x1589 0.0))))
(assert
 (let ((?x1587 (+ (* (* 6.0 _a_1_) l_1_1_12) (* (* 6.0 _a_1_) l_1_1_13))))
 (let ((?x1413 (- (- ?x1587 (* (* 2.0 l_1_1_18) l_1_1_21)) (* (* 2.0 l_1_1_19) l_1_1_22))))
 (= (- ?x1413 (* (* 2.0 l_1_1_20) l_1_1_23)) 0.0))))
(assert
 (>= l_1_1_1 0.0))
(assert
 (>= l_1_1_2 0.0))
(assert
 (>= l_1_1_3 0.0))
(assert
 (>= l_1_1_4 0.0))
(assert
 (>= l_1_1_5 0.0))
(assert
 (>= l_1_1_6 0.0))
(assert
 (>= l_1_1_7 0.0))
(assert
 (>= l_1_1_8 0.0))
(assert
 (>= l_1_1_9 0.0))
(assert
 (>= l_1_1_10 0.0))
(assert
 (>= l_1_1_11 0.0))
(assert
 (>= l_1_1_12 0.0))
(assert
 (>= l_1_1_13 0.0))
(assert
 (>= l_1_1_14 0.0))
(assert
 (>= l_1_1_15 0.0))
(assert
 (>= l_1_1_17 0.0))
(assert
 (>= l_1_1_20 0.0))
(assert
 (>= l_1_1_24 0.0))
(assert
 (let ((?x1157 (* 256.0 l_1_2_9)))
 (let ((?x1240 (* 16.0 l_1_2_2)))
 (let ((?x1275 (* l_1_2_15 l_1_2_15)))
 (let ((?x1268 (* 16.0 l_1_2_13)))
 (let ((?x1260 (* 16.0 l_1_2_10)))
 (let ((?x1303 (* _a_0_ l_1_2_8)))
 (let ((?x1295 (* _a_0_ l_1_2_5)))
 (let ((?x1297 (- (+ (* (- _a_0_) l_1_2_12) (* (* 16.0 _a_0_) l_1_2_4)) ?x1295)))
 (let ((?x1242 (- (+ (- (+ ?x1297 (* (* 16.0 _a_0_) l_1_2_7)) ?x1303) _a_0_) l_1_2_1)))
 (let ((?x1243 (+ (- (- (+ (- (+ ?x1242 ?x1260) l_1_2_11) ?x1268) l_1_2_14) ?x1275) ?x1240)))
 (= (- (- (- ?x1243 (* (* l_1_2_3 _a_0_) _a_0_)) l_1_2_6) ?x1157) 0.0))))))))))))
(assert
 (let ((?x1027 (* 192.0 l_1_2_9)))
 (let ((?x1026 (* 6.0 l_1_2_2)))
 (let ((?x1021 (* 6.0 l_1_2_13)))
 (let ((?x1103 (* 6.0 l_1_2_10)))
 (let ((?x1101 (* (/ 1.0 10.0) _a_1_)))
 (let ((?x1099 (- (* (* (- 6.0) _a_0_) l_1_2_4) (* (* 6.0 _a_0_) l_1_2_7))))
 (let ((?x1025 (- (- (- (+ ?x1099 ?x1101) ?x1103) ?x1021) (* (* 2.0 l_1_2_15) l_1_2_18))))
 (= (+ (- ?x1025 ?x1026) ?x1027) 0.0)))))))))
(assert
 (let ((?x829 (* (/ 19.0 10.0) _a_1_)))
 (let ((?x882 (* _a_1_ l_1_2_8)))
 (let ((?x927 (* _a_1_ l_1_2_5)))
 (let ((?x923 (* _a_1_ l_1_2_12)))
 (let ((?x926 (+ (- (* (* (* (- 2.0) _a_0_) _a_1_) l_1_2_3) ?x923) (* (* 16.0 _a_1_) l_1_2_4))))
 (let ((?x885 (+ (- (+ (- ?x926 ?x927) (* (* 16.0 _a_1_) l_1_2_7)) ?x882) ?x829)))
 (= (- ?x885 (* (* 2.0 l_1_2_15) l_1_2_25)) 0.0))))))))
(assert
 (let ((?x1027 (* 192.0 l_1_2_9)))
 (let ((?x1026 (* 6.0 l_1_2_2)))
 (let ((?x1021 (* 6.0 l_1_2_13)))
 (let ((?x1103 (* 6.0 l_1_2_10)))
 (let ((?x740 (* (/ 1.0 20.0) _a_1_)))
 (let ((?x1099 (- (* (* (- 6.0) _a_0_) l_1_2_4) (* (* 6.0 _a_0_) l_1_2_7))))
 (let ((?x745 (- (- (- (+ ?x1099 ?x740) ?x1103) ?x1021) (* (* 2.0 l_1_2_15) l_1_2_16))))
 (= (+ (- ?x745 ?x1026) ?x1027) 0.0)))))))))
(assert
 (let ((?x688 (* 68.0 l_1_2_9)))
 (let ((?x689 (* l_1_2_20 l_1_2_20)))
 (let ((?x24 (* l_1_2_19 l_1_2_19)))
 (let ((?x28 (* l_1_2_18 l_1_2_18)))
 (let ((?x699 (* (/ 1.0 100.0) _a_2_)))
 (let ((?x702 (+ (+ (+ (* _a_0_ l_1_2_4) (* _a_0_ l_1_2_7)) ?x699) l_1_2_10)))
 (let ((?x18 (- (- (+ (- (- (+ ?x702 l_1_2_13) ?x28) ?x24) l_1_2_2) ?x689) ?x688)))
 (= ?x18 0.0)))))))))
(assert
 (let ((?x206 (* (/ 19.0 50.0) _a_2_)))
 (let ((?x508 (- (* (* (- 6.0) _a_1_) l_1_2_4) (* (* 6.0 _a_1_) l_1_2_7))))
 (let ((?x486 (- (- (+ ?x508 ?x206) (* (* 2.0 l_1_2_18) l_1_2_25)) (* (* 2.0 l_1_2_19) l_1_2_26))))
 (= (- ?x486 (* (* 2.0 l_1_2_20) l_1_2_27)) 0.0)))))
(assert
 (let ((?x173 (* 72.0 l_1_2_9)))
 (let ((?x651 (- (- (* (/ 1.0 100.0) _a_2_) (* (* 2.0 l_1_2_16) l_1_2_18)) (* (* 2.0 l_1_2_17) l_1_2_19))))
 (= (- ?x651 ?x173) 0.0))))
(assert
 (let ((?x282 (* 32.0 l_1_2_9)))
 (let ((?x431 (* l_1_2_29 l_1_2_29)))
 (let ((?x567 (* l_1_2_28 l_1_2_28)))
 (let ((?x561 (* l_1_2_27 l_1_2_27)))
 (let ((?x459 (* l_1_2_26 l_1_2_26)))
 (let ((?x557 (* l_1_2_25 l_1_2_25)))
 (let ((?x593 (* (/ 361.0 100.0) _a_2_)))
 (let ((?x627 (* _a_2_ l_1_2_8)))
 (let ((?x596 (+ (- (- (* (- _a_2_) l_1_2_12) (* _a_2_ l_1_2_5)) ?x627) ?x593)))
 (let ((?x564 (- (- (- (+ (+ (+ ?x596 l_1_2_10) l_1_2_13) l_1_2_2) ?x557) ?x459) ?x561)))
 (let ((?x436 (- (- (- ?x564 ?x567) ?x431) (* l_1_2_3 (+ (* (* 2.0 _a_0_) _a_2_) (* _a_1_ _a_1_))))))
 (let ((?x533 (- (- ?x436 (* l_1_2_4 (- (- _a_0_) (* 16.0 _a_2_)))) (* l_1_2_7 (- (- _a_0_) (* 16.0 _a_2_))))))
 (= (- ?x533 ?x282) 0.0))))))))))))))
(assert
 (let ((?x284 (* (/ 19.0 100.0) _a_2_)))
 (let ((?x508 (- (* (* (- 6.0) _a_1_) l_1_2_4) (* (* 6.0 _a_1_) l_1_2_7))))
 (let ((?x258 (- (- (+ ?x508 ?x284) (* (* 2.0 l_1_2_16) l_1_2_25)) (* (* 2.0 l_1_2_17) l_1_2_26))))
 (= ?x258 0.0)))))
(assert
 (let ((?x688 (* 68.0 l_1_2_9)))
 (let ((?x158 (* l_1_2_17 l_1_2_17)))
 (let ((?x155 (* l_1_2_16 l_1_2_16)))
 (let ((?x208 (* _a_3_ l_1_2_8)))
 (let ((?x205 (* _a_3_ l_1_2_5)))
 (let ((?x202 (* _a_3_ l_1_2_12)))
 (let ((?x204 (- (+ (* (* (* (- 2.0) _a_0_) _a_3_) l_1_2_3) (* (/ 1.0 400.0) _a_2_)) ?x202)))
 (let ((?x159 (- (- (+ (+ (- (- ?x204 ?x205) ?x208) l_1_2_10) l_1_2_13) ?x155) ?x158)))
 (let ((?x163 (- (+ ?x159 l_1_2_2) (* l_1_2_4 (- (- _a_0_) (* 16.0 _a_3_))))))
 (= (- (- ?x163 (* l_1_2_7 (- (- _a_0_) (* 16.0 _a_3_)))) ?x688) 0.0)))))))))))
(assert
 (let ((?x2529 (* l_1_2_24 l_1_2_24)))
 (let ((?x2877 (* l_1_2_23 l_1_2_23)))
 (let ((?x2878 (- (- (- _a_3_ (* l_1_2_21 l_1_2_21)) (* l_1_2_22 l_1_2_22)) ?x2877)))
 (= (- ?x2878 ?x2529) 0.0)))))
(assert
 (let ((?x831 (* _a_1_ l_1_2_7)))
 (let ((?x859 (* _a_1_ l_1_2_4)))
 (= (+ (+ (* (* (* (- 2.0) _a_1_) _a_2_) l_1_2_3) ?x859) ?x831) 0.0))))
(assert
 (let ((?x831 (* _a_1_ l_1_2_7)))
 (let ((?x859 (* _a_1_ l_1_2_4)))
 (= (+ (+ (* (* (* (- 2.0) _a_1_) _a_3_) l_1_2_3) ?x859) ?x831) 0.0))))
(assert
 (let ((?x301 (* _a_2_ l_1_2_7)))
 (let ((?x382 (* _a_2_ l_1_2_4)))
 (let ((?x2608 (+ ?x382 ?x301)))
 (= (- (- ?x2608 (* (* l_1_2_3 _a_2_) _a_2_)) l_1_2_9) 0.0)))))
(assert
 (let ((?x2005 (* 2.0 l_1_2_9)))
 (let ((?x582 (- (* (* (* (- 2.0) _a_2_) _a_3_) l_1_2_3) (* l_1_2_4 (- (- _a_2_) _a_3_)))))
 (= (- (- ?x582 (* l_1_2_7 (- (- _a_2_) _a_3_))) ?x2005) 0.0))))
(assert
 (let ((?x1199 (* _a_3_ l_1_2_7)))
 (let ((?x1196 (* _a_3_ l_1_2_4)))
 (let ((?x1511 (+ ?x1196 ?x1199)))
 (= (- (- ?x1511 (* (* l_1_2_3 _a_3_) _a_3_)) l_1_2_9) 0.0)))))
(assert
 (= (+ (* _a_1_ l_1_2_4) (* _a_1_ l_1_2_7)) 0.0))
(assert
 (let ((?x2005 (* 2.0 l_1_2_9)))
 (let ((?x301 (* _a_2_ l_1_2_7)))
 (let ((?x382 (* _a_2_ l_1_2_4)))
 (let ((?x2608 (+ ?x382 ?x301)))
 (= (- ?x2608 ?x2005) 0.0))))))
(assert
 (let ((?x1515 (* 12.0 l_1_2_9)))
 (let ((?x1516 (+ (- (* (* (- 6.0) _a_2_) l_1_2_4) (* (* 6.0 _a_2_) l_1_2_7)) ?x1515)))
 (= ?x1516 0.0))))
(assert
 (let ((?x1515 (* 12.0 l_1_2_9)))
 (let ((?x1516 (+ (- (* (* (- 6.0) _a_2_) l_1_2_4) (* (* 6.0 _a_2_) l_1_2_7)) ?x1515)))
 (= ?x1516 0.0))))
(assert
 (let ((?x2005 (* 2.0 l_1_2_9)))
 (let ((?x1199 (* _a_3_ l_1_2_7)))
 (let ((?x1196 (* _a_3_ l_1_2_4)))
 (let ((?x1511 (+ ?x1196 ?x1199)))
 (= (- ?x1511 ?x2005) 0.0))))))
(assert
 (let ((?x1515 (* 12.0 l_1_2_9)))
 (let ((?x2223 (+ (- (* (* (- 6.0) _a_3_) l_1_2_4) (* (* 6.0 _a_3_) l_1_2_7)) ?x1515)))
 (= ?x2223 0.0))))
(assert
 (let ((?x1515 (* 12.0 l_1_2_9)))
 (let ((?x2223 (+ (- (* (* (- 6.0) _a_3_) l_1_2_4) (* (* 6.0 _a_3_) l_1_2_7)) ?x1515)))
 (= ?x2223 0.0))))
(assert
 (= (- l_1_2_9) 0.0))
(assert
 (let ((?x1515 (* 12.0 l_1_2_9)))
 (= ?x1515 0.0)))
(assert
 (let ((?x1515 (* 12.0 l_1_2_9)))
 (= ?x1515 0.0)))
(assert
 (= (* (* (- 2.0) l_1_2_15) l_1_2_21) 0.0))
(assert
 (let ((?x2728 (- (* (* (- 2.0) l_1_2_16) l_1_2_21) (* (* 2.0 l_1_2_17) l_1_2_22))))
 (= ?x2728 0.0)))
(assert
 (let ((?x1212 (- (* (* (- 2.0) l_1_2_18) l_1_2_21) (* (* 2.0 l_1_2_19) l_1_2_22))))
 (= (- ?x1212 (* (* 2.0 l_1_2_20) l_1_2_23)) 0.0)))
(assert
 (let ((?x3071 (- (* (* (- 2.0) l_1_2_21) l_1_2_25) (* (* 2.0 l_1_2_22) l_1_2_26))))
 (let ((?x3077 (- (- ?x3071 (* (* 2.0 l_1_2_23) l_1_2_27)) (* (* 2.0 l_1_2_24) l_1_2_28))))
 (= ?x3077 0.0))))
(assert
 (>= l_1_2_1 0.0))
(assert
 (>= l_1_2_2 0.0))
(assert
 (>= l_1_2_3 0.0))
(assert
 (>= l_1_2_4 0.0))
(assert
 (>= l_1_2_5 0.0))
(assert
 (>= l_1_2_6 0.0))
(assert
 (>= l_1_2_7 0.0))
(assert
 (>= l_1_2_8 0.0))
(assert
 (>= l_1_2_9 0.0))
(assert
 (>= l_1_2_10 0.0))
(assert
 (>= l_1_2_11 0.0))
(assert
 (>= l_1_2_12 0.0))
(assert
 (>= l_1_2_13 0.0))
(assert
 (>= l_1_2_14 0.0))
(assert
 (>= l_1_2_15 0.0))
(assert
 (>= l_1_2_17 0.0))
(assert
 (>= l_1_2_20 0.0))
(assert
 (>= l_1_2_24 0.0))
(assert
 (>= l_1_2_29 0.0))
(check-sat)
(get-model)